####################################################################### 
# 
# This file contains crystal structure data downloaded from the 
# Cambridge Structural Database (CSD) hosted by the Cambridge 
# Crystallographic Data Centre (CCDC).
# 
# Full information about CCDC data access policies and citation 
# guidelines are available at http://www.ccdc.cam.ac.uk/access/V1 
# 
# Audit and citation data items may have been added by the CCDC. 
# Please retain this information to preserve the provenance of 
# this file and to allow appropriate attribution of the data. 
# 
#######################################################################

data_aloc1r
_audit_block_doi                 10.5517/cc3gcrn
_database_code_depnum_ccdc_archive 'CCDC 103191'
loop_
_citation_id
_citation_doi
_citation_year
1 10.1002/(SICI)1521-3773(19990401)38:7<988::AID-ANIE988>3.0.CO;2-0 1999
_audit_update_record             
;
2017-04-03 deposited with the CCDC.	2021-09-21 downloaded from the CCDC.
;

_audit_creation_method           SHELXL
_chemical_name_systematic        
; 
 ? 
;
_chemical_name_common            ?
_chemical_formula_moiety         ?
_chemical_formula_structural     ?
_chemical_formula_analytical     ?
_chemical_formula_sum            'C8 H18'
_chemical_formula_weight         114.22
_chemical_melting_point          ?
_chemical_compound_source        ?

loop_
_atom_type_symbol
_atom_type_description
_atom_type_scat_dispersion_real
_atom_type_scat_dispersion_imag
_atom_type_scat_source
C C 0.0033 0.0016 'International Tables Vol C Tables 4.2.6.8 and 6.1.1.4'
H H 0.0000 0.0000 'International Tables Vol C Tables 4.2.6.8 and 6.1.1.4'

_symmetry_cell_setting           ?
_symmetry_space_group_name_H-M   ?

loop_
_symmetry_equiv_pos_as_xyz
'x, y, z'
'-x, -y, -z'

_cell_length_a                   4.1230(9)
_cell_length_b                   4.6860(13)
_cell_length_c                   10.974(3)
_cell_angle_alpha                85.06(2)
_cell_angle_beta                 83.72(2)
_cell_angle_gamma                75.10(2)
_cell_volume                     203.30(9)
_cell_formula_units_Z            1
_cell_measurement_temperature    90(2)
_cell_measurement_reflns_used    ?
_cell_measurement_theta_min      ?
_cell_measurement_theta_max      ?

_exptl_crystal_description       ?
_exptl_crystal_colour            ?
_exptl_crystal_size_max          ?
_exptl_crystal_size_mid          ?
_exptl_crystal_size_min          ?
_exptl_crystal_density_meas      ?
_exptl_crystal_density_diffrn    0.933
_exptl_crystal_density_method    ?
_exptl_crystal_F_000             66
_exptl_absorpt_coefficient_mu    0.051
_exptl_absorpt_correction_type   ?
_exptl_absorpt_correction_T_min  ?
_exptl_absorpt_correction_T_max  ?

_exptl_special_details           
; 
 ? 
;

_diffrn_ambient_temperature      90(2)
_diffrn_radiation_wavelength     0.71073
_diffrn_radiation_type           MoK\a
_diffrn_radiation_source         'fine-focus sealed tube'
_diffrn_radiation_monochromator  graphite
_diffrn_measurement_device       ?
_diffrn_measurement_method       ?
_diffrn_standards_number         ?
_diffrn_standards_interval_count ?
_diffrn_standards_interval_time  ?
_diffrn_standards_decay_%        ?
_diffrn_reflns_number            1356
_diffrn_reflns_av_R_equivalents  0.0472
_diffrn_reflns_av_sigmaI/netI    0.0277
_diffrn_reflns_limit_h_min       -5
_diffrn_reflns_limit_h_max       5
_diffrn_reflns_limit_k_min       -6
_diffrn_reflns_limit_k_max       6
_diffrn_reflns_limit_l_min       -15
_diffrn_reflns_limit_l_max       1
_diffrn_reflns_theta_min         1.87
_diffrn_reflns_theta_max         30.00
_reflns_number_total             1187
_reflns_number_observed          991
_reflns_observed_criterion       >2sigma(I)

_computing_data_collection       ?
_computing_cell_refinement       ?
_computing_data_reduction        ?
_computing_structure_solution    'SHELXS-86 (Sheldrick, 1990)'
_computing_structure_refinement  'SHELXL-93 (Sheldrick, 1993)'
_computing_molecular_graphics    ?
_computing_publication_material  ?

_refine_special_details          
; 
 Refinement on F^2^ for ALL reflections except for 0 with very negative F^2^ 
 or flagged by the user for potential systematic errors.  Weighted R-factors 
 wR and all goodnesses of fit S are based on F^2^, conventional R-factors R 
 are based on F, with F set to zero for negative F^2^. The observed criterion 
 of F^2^ > 2sigma(F^2^) is used only for calculating _R_factor_obs etc. and is 
 not relevant to the choice of reflections for refinement.  R-factors based 
 on F^2^ are statistically about twice as large as those based on F, and R- 
 factors based on ALL data will be even larger. 
;

_refine_ls_structure_factor_coef Fsqd
_refine_ls_matrix_type           full
_refine_ls_weighting_scheme      
'calc w=1/[\s^2^(Fo^2^)+(0.0712P)^2^+0.0139P] where P=(Fo^2^+2Fc^2^)/3'
_atom_sites_solution_primary     direct
_atom_sites_solution_secondary   difmap
_atom_sites_solution_hydrogens   geom
_refine_ls_hydrogen_treatment    ?
_refine_ls_extinction_method     none
_refine_ls_extinction_coef       ?
_refine_ls_number_reflns         1187
_refine_ls_number_parameters     73
_refine_ls_number_restraints     0
_refine_ls_R_factor_all          0.0443
_refine_ls_R_factor_obs          0.0386
_refine_ls_wR_factor_all         0.1285
_refine_ls_wR_factor_obs         0.1232
_refine_ls_goodness_of_fit_all   1.133
_refine_ls_goodness_of_fit_obs   1.196
_refine_ls_restrained_S_all      1.133
_refine_ls_restrained_S_obs      1.196
_refine_ls_shift/esd_max         -0.001
_refine_ls_shift/esd_mean        0.000

loop_
_atom_site_label
_atom_site_type_symbol
_atom_site_fract_x
_atom_site_fract_y
_atom_site_fract_z
_atom_site_U_iso_or_equiv
_atom_site_thermal_displace_type
_atom_site_occupancy
_atom_site_calc_flag
_atom_site_refinement_flags
_atom_site_disorder_group
C1 C 0.2005(2) 0.7446(2) 0.11866(6) 0.0258(2) Uani 1 d . .
H1A H -0.0157(27) 0.8770(25) 0.1461(10) 0.036(3) Uiso 1 d . .
H1B H 0.3505(27) 0.8675(24) 0.0962(10) 0.034(2) Uiso 1 d . .
H1C H 0.1744(30) 0.6436(27) 0.0459(12) 0.048(3) Uiso 1 d . .
C2 C 0.3262(2) 0.51666(15) 0.22137(6) 0.0214(2) Uani 1 d . .
H2A H 0.1749(25) 0.3922(21) 0.2404(9) 0.030(2) Uiso 1 d . .
H2B H 0.5409(25) 0.3867(22) 0.1941(9) 0.027(2) Uiso 1 d . .
C3 C 0.36160(15) 0.65621(13) 0.33765(5) 0.0185(2) Uani 1 d . .
H3A H 0.1475(24) 0.7900(22) 0.3655(9) 0.022(2) Uiso 1 d . .
H3B H 0.5153(25) 0.7782(23) 0.3192(9) 0.024(2) Uiso 1 d . .
C4 C 0.48187(15) 0.42989(13) 0.44192(5) 0.0184(2) Uani 1 d . .
H4A H 0.3277(25) 0.3093(23) 0.4613(9) 0.023(2) Uiso 1 d . .
H4B H 0.6961(24) 0.2989(22) 0.4132(9) 0.022(2) Uiso 1 d . .

loop_
_atom_site_aniso_label
_atom_site_aniso_U_11
_atom_site_aniso_U_22
_atom_site_aniso_U_33
_atom_site_aniso_U_23
_atom_site_aniso_U_13
_atom_site_aniso_U_12
C1 0.0273(4) 0.0315(4) 0.0183(3) 0.0007(3) -0.0058(3) -0.0062(3)
C2 0.0236(3) 0.0226(4) 0.0179(3) -0.0027(2) -0.0038(2) -0.0043(2)
C3 0.0196(4) 0.0192(4) 0.0163(3) -0.0011(2) -0.0026(2) -0.0038(3)
C4 0.0198(4) 0.0184(3) 0.0165(3) -0.0013(2) -0.0026(2) -0.0035(2)

_geom_special_details            
; 
 All esds (except the esd in the dihedral angle between two l.s. planes) 
 are estimated using the full covariance matrix.  The cell esds are taken 
 into account individually in the estimation of esds in distances, angles 
 and torsion angles; correlations between esds in cell parameters are only 
 used when they are defined by crystal symmetry.  An approximate (isotropic) 
 treatment of cell esds is used for estimating esds involving l.s. planes. 
;

loop_
_geom_bond_atom_site_label_1
_geom_bond_atom_site_label_2
_geom_bond_distance
_geom_bond_site_symmetry_2
_geom_bond_publ_flag
C1 C2 1.5216(10) . ?
C1 H1A 0.979(11) . ?
C1 H1B 0.949(11) . ?
C1 H1C 0.991(13) . ?
C2 C3 1.5202(9) . ?
C2 H2A 0.954(10) . ?
C2 H2B 0.970(10) . ?
C3 C4 1.5247(9) . ?
C3 H3A 0.977(10) . ?
C3 H3B 0.953(10) . ?
C4 C4 1.5217(12) 2_666 ?
C4 H4A 0.950(10) . ?
C4 H4B 0.975(10) . ?

loop_
_geom_angle_atom_site_label_1
_geom_angle_atom_site_label_2
_geom_angle_atom_site_label_3
_geom_angle
_geom_angle_site_symmetry_1
_geom_angle_site_symmetry_3
_geom_angle_publ_flag
C2 C1 H1A 110.4(6) . . ?
C2 C1 H1B 111.3(6) . . ?
H1A C1 H1B 105.9(10) . . ?
C2 C1 H1C 109.9(7) . . ?
H1A C1 H1C 109.7(9) . . ?
H1B C1 H1C 109.5(10) . . ?
C3 C2 C1 112.87(6) . . ?
C3 C2 H2A 108.9(6) . . ?
C1 C2 H2A 109.6(6) . . ?
C3 C2 H2B 109.4(6) . . ?
C1 C2 H2B 110.1(6) . . ?
H2A C2 H2B 105.7(8) . . ?
C2 C3 C4 113.34(6) . . ?
C2 C3 H3A 110.2(6) . . ?
C4 C3 H3A 109.3(6) . . ?
C2 C3 H3B 109.0(6) . . ?
C4 C3 H3B 109.3(6) . . ?
H3A C3 H3B 105.3(9) . . ?
C4 C4 C3 113.24(7) 2_666 . ?
C4 C4 H4A 108.5(6) 2_666 . ?
C3 C4 H4A 109.6(6) . . ?
C4 C4 H4B 110.3(6) 2_666 . ?
C3 C4 H4B 108.5(6) . . ?
H4A C4 H4B 106.5(9) . . ?

_refine_diff_density_max         0.481
_refine_diff_density_min         -0.153
_refine_diff_density_rms         0.036
